(set-info :smt-lib-version 2.6)
(set-logic UF)
(set-info :source |Benchmarks from the paper: "Extending Sledgehammer with SMT Solvers" by Jasmin Blanchette, Sascha Bohme, and Lawrence C. Paulson, CADE 2011.  Translated to SMT2 by Andrew Reynolds and Morgan Deters.|)
(set-info :category "industrial")
(set-info :status unsat)
(declare-sort S1 0)
(declare-sort S2 0)
(declare-sort S3 0)
(declare-sort S4 0)
(declare-sort S5 0)
(declare-sort S6 0)
(declare-sort S7 0)
(declare-sort S8 0)
(declare-sort S9 0)
(declare-sort S10 0)
(declare-sort S11 0)
(declare-sort S12 0)
(declare-sort S13 0)
(declare-sort S14 0)
(declare-sort S15 0)
(declare-sort S16 0)
(declare-sort S17 0)
(declare-fun f1 () S1)
(declare-fun f2 () S1)
(declare-fun f3 (S3 S2) S2)
(declare-fun f4 () S3)
(declare-fun f5 () S3)
(declare-fun f6 (S4 S2) S3)
(declare-fun f7 () S4)
(declare-fun f8 (S5 S6) S2)
(declare-fun f9 () S5)
(declare-fun f10 (S7 S6) S6)
(declare-fun f11 () S7)
(declare-fun f12 () S7)
(declare-fun f13 () S6)
(declare-fun f14 () S4)
(declare-fun f15 () S4)
(declare-fun f16 () S3)
(declare-fun f17 (S3 S8) S1)
(declare-fun f18 () S8)
(declare-fun f19 (S9 S6) S7)
(declare-fun f20 () S9)
(declare-fun f21 () S7)
(declare-fun f22 (S11 S10) S10)
(declare-fun f23 (S12 S10) S11)
(declare-fun f24 () S12)
(declare-fun f25 (S13 S6) S10)
(declare-fun f26 () S13)
(declare-fun f27 (S6) S1)
(declare-fun f28 (S10) S1)
(declare-fun f29 () S4)
(declare-fun f30 (S14 S2) S6)
(declare-fun f31 (S15 S6) S14)
(declare-fun f32 () S15)
(declare-fun f33 (S16 S2) S10)
(declare-fun f34 (S17 S10) S16)
(declare-fun f35 () S17)
(declare-fun f36 () S9)
(declare-fun f37 () S12)
(declare-fun f38 (S2) S1)
(declare-fun f39 (S2 S8) S1)
(declare-fun f40 (S8 S2) S1)
(assert (not (= f1 f2)))
(assert (forall ((?v0 S2)) (= (f3 f4 ?v0) (f3 f5 (f3 (f6 f7 (f8 f9 (f10 f11 (f10 f12 f13)))) ?v0)))))
(assert (forall ((?v0 S2) (?v1 S2)) (= (f3 (f6 f14 ?v0) ?v1) (f3 (f6 f15 ?v1) ?v0))))
(assert (forall ((?v0 S2)) (= (f3 f16 ?v0) ?v0)))
(assert (not (= (f17 f4 f18) f1)))
(assert (forall ((?v0 S8)) (= (f17 (f6 f7 (f8 f9 (f10 f11 (f10 f12 f13)))) ?v0) f1)))
(assert (forall ((?v0 S6)) (= (f10 (f19 f20 ?v0) (f10 f21 (f10 f12 f13))) ?v0)))
(assert (forall ((?v0 S10)) (= (f22 (f23 f24 ?v0) (f25 f26 (f10 f12 f13))) ?v0)))
(assert (forall ((?v0 S6)) (= (f10 (f19 f20 (f10 f21 (f10 f12 f13))) ?v0) ?v0)))
(assert (forall ((?v0 S10)) (= (f22 (f23 f24 (f25 f26 (f10 f12 f13))) ?v0) ?v0)))
(assert (forall ((?v0 S8)) (= (f17 f5 ?v0) f1)))
(assert (forall ((?v0 S2) (?v1 S2) (?v2 S2)) (let ((?v_0 (f6 f7 (f3 f5 ?v0)))) (= (= (f3 ?v_0 ?v1) (f3 ?v_0 ?v2)) (= ?v1 ?v2)))))
(assert (= (f10 f11 f13) f13))
(assert (forall ((?v0 S6)) (= (= f13 (f10 f11 ?v0)) (= f13 ?v0))))
(assert (forall ((?v0 S6)) (= (= (f10 f11 ?v0) f13) (= ?v0 f13))))
(assert (forall ((?v0 S6) (?v1 S6)) (= (= (f10 f11 ?v0) (f10 f12 ?v1)) false)))
(assert (forall ((?v0 S6) (?v1 S6)) (= (= (f10 f12 ?v0) (f10 f11 ?v1)) false)))
(assert (forall ((?v0 S6)) (= (= f13 (f10 f12 ?v0)) false)))
(assert (forall ((?v0 S6)) (= (= (f10 f12 ?v0) f13) false)))
(assert (forall ((?v0 S6) (?v1 S6)) (= (f10 f21 (f10 (f19 f20 ?v0) ?v1)) (f10 (f19 f20 (f10 f21 ?v0)) (f10 f21 ?v1)))))
(assert (forall ((?v0 S6) (?v1 S6)) (= (f25 f26 (f10 (f19 f20 ?v0) ?v1)) (f22 (f23 f24 (f25 f26 ?v0)) (f25 f26 ?v1)))))
(assert (forall ((?v0 S6) (?v1 S6)) (= (f10 (f19 f20 ?v0) ?v1) (f10 (f19 f20 ?v1) ?v0))))
(assert (forall ((?v0 S6) (?v1 S6)) (= (f10 (f19 f20 (f10 f21 ?v0)) (f10 f21 ?v1)) (f10 f21 (f10 (f19 f20 ?v0) ?v1)))))
(assert (forall ((?v0 S6) (?v1 S6) (?v2 S6)) (let ((?v_0 (f19 f20 ?v0))) (= (f10 (f19 f20 (f10 ?v_0 ?v1)) ?v2) (f10 ?v_0 (f10 (f19 f20 ?v1) ?v2))))))
(assert (forall ((?v0 S6)) (= (f10 (f19 f20 f13) ?v0) f13)))
(assert (forall ((?v0 S6) (?v1 S6)) (= (f10 (f19 f20 (f10 f11 ?v0)) ?v1) (f10 f11 (f10 (f19 f20 ?v0) ?v1)))))
(assert (forall ((?v0 S6) (?v1 S6)) (= (= (f10 f21 ?v0) (f10 f21 ?v1)) (= ?v0 ?v1))))
(assert (forall ((?v0 S6) (?v1 S6)) (= (= (f25 f26 ?v0) (f25 f26 ?v1)) (= ?v0 ?v1))))
(assert (forall ((?v0 S6) (?v1 S2)) (let ((?v_0 (f8 f9 ?v0))) (= (= ?v_0 ?v1) (= ?v1 ?v_0)))))
(assert (forall ((?v0 S6) (?v1 S6)) (let ((?v_0 (f10 f21 ?v0))) (= (= ?v_0 ?v1) (= ?v1 ?v_0)))))
(assert (forall ((?v0 S6) (?v1 S10)) (let ((?v_0 (f25 f26 ?v0))) (= (= ?v_0 ?v1) (= ?v1 ?v_0)))))
(assert (forall ((?v0 S6) (?v1 S6)) (= (= (f10 f12 ?v0) (f10 f12 ?v1)) (= ?v0 ?v1))))
(assert (= (= f13 f13) true))
(assert (forall ((?v0 S6) (?v1 S6)) (= (= (f10 f11 ?v0) (f10 f11 ?v1)) (= ?v0 ?v1))))
(assert (forall ((?v0 S2) (?v1 S2)) (=> (= (f3 f5 ?v0) (f3 f5 ?v1)) (= ?v0 ?v1))))
(assert (forall ((?v0 S2) (?v1 S2)) (= (= (f3 f5 ?v0) (f3 f5 ?v1)) (= ?v0 ?v1))))
(assert (forall ((?v0 S2)) (not (= (f3 f5 ?v0) ?v0))))
(assert (forall ((?v0 S2)) (not (= ?v0 (f3 f5 ?v0)))))
(assert (forall ((?v0 S2) (?v1 S2) (?v2 S2)) (let ((?v_0 (f6 f7 ?v0))) (= (f3 (f6 f7 (f3 ?v_0 ?v1)) ?v2) (f3 ?v_0 (f3 (f6 f7 ?v1) ?v2))))))
(assert (forall ((?v0 S2) (?v1 S2)) (= (f3 (f6 f7 ?v0) ?v1) (f3 (f6 f7 ?v1) ?v0))))
(assert (forall ((?v0 S6) (?v1 S6) (?v2 S6)) (= (f10 (f19 f20 (f10 f21 ?v0)) (f10 (f19 f20 (f10 f21 ?v1)) ?v2)) (f10 (f19 f20 (f10 f21 (f10 (f19 f20 ?v0) ?v1))) ?v2))))
(assert (forall ((?v0 S6) (?v1 S6) (?v2 S10)) (= (f22 (f23 f24 (f25 f26 ?v0)) (f22 (f23 f24 (f25 f26 ?v1)) ?v2)) (f22 (f23 f24 (f25 f26 (f10 (f19 f20 ?v0) ?v1))) ?v2))))
(assert (forall ((?v0 S6) (?v1 S6)) (= (f10 (f19 f20 (f10 f21 ?v0)) (f10 f21 ?v1)) (f10 f21 (f10 (f19 f20 ?v0) ?v1)))))
(assert (forall ((?v0 S6) (?v1 S6)) (= (f22 (f23 f24 (f25 f26 ?v0)) (f25 f26 ?v1)) (f25 f26 (f10 (f19 f20 ?v0) ?v1)))))
(assert (not (= (f27 (f10 f21 (f10 f12 f13))) f1)))
(assert (not (= (f28 (f25 f26 (f10 f12 f13))) f1)))
(assert (forall ((?v0 S2) (?v1 S2)) (let ((?v_0 (f6 f29 ?v0))) (let ((?v_1 (f3 ?v_0 ?v1))) (= (f3 ?v_0 (f3 f5 (f3 (f6 f7 (f8 f9 (f10 f11 (f10 f12 f13)))) ?v1))) (f3 (f6 f7 ?v0) (f3 (f6 f7 ?v_1) ?v_1)))))))
(assert (forall ((?v0 S6) (?v1 S2)) (let ((?v_0 (f31 f32 ?v0))) (let ((?v_1 (f30 ?v_0 ?v1))) (= (f30 ?v_0 (f3 f5 (f3 (f6 f7 (f8 f9 (f10 f11 (f10 f12 f13)))) ?v1))) (f10 (f19 f20 ?v0) (f10 (f19 f20 ?v_1) ?v_1)))))))
(assert (forall ((?v0 S10) (?v1 S2)) (let ((?v_0 (f34 f35 ?v0))) (let ((?v_1 (f33 ?v_0 ?v1))) (= (f33 ?v_0 (f3 f5 (f3 (f6 f7 (f8 f9 (f10 f11 (f10 f12 f13)))) ?v1))) (f22 (f23 f24 ?v0) (f22 (f23 f24 ?v_1) ?v_1)))))))
(assert (forall ((?v0 S2) (?v1 S2)) (let ((?v_1 (f8 f9 (f10 f11 (f10 f12 f13)))) (?v_0 (f6 f29 ?v0))) (= (f3 ?v_0 (f3 f5 (f3 (f6 f7 ?v_1) ?v1))) (f3 (f6 f7 ?v0) (f3 (f6 f29 (f3 ?v_0 ?v1)) ?v_1))))))
(assert (forall ((?v0 S6) (?v1 S2)) (let ((?v_1 (f8 f9 (f10 f11 (f10 f12 f13)))) (?v_0 (f31 f32 ?v0))) (= (f30 ?v_0 (f3 f5 (f3 (f6 f7 ?v_1) ?v1))) (f10 (f19 f20 ?v0) (f30 (f31 f32 (f30 ?v_0 ?v1)) ?v_1))))))
(assert (forall ((?v0 S10) (?v1 S2)) (let ((?v_1 (f8 f9 (f10 f11 (f10 f12 f13)))) (?v_0 (f34 f35 ?v0))) (= (f33 ?v_0 (f3 f5 (f3 (f6 f7 ?v_1) ?v1))) (f22 (f23 f24 ?v0) (f33 (f34 f35 (f33 ?v_0 ?v1)) ?v_1))))))
(assert (forall ((?v0 S6)) (= (f10 (f19 f20 (f10 f21 (f10 f11 (f10 f12 f13)))) ?v0) (f10 (f19 f36 ?v0) ?v0))))
(assert (forall ((?v0 S2)) (= (f3 (f6 f7 (f8 f9 (f10 f11 (f10 f12 f13)))) ?v0) (f3 (f6 f15 ?v0) ?v0))))
(assert (forall ((?v0 S10)) (= (f22 (f23 f24 (f25 f26 (f10 f11 (f10 f12 f13)))) ?v0) (f22 (f23 f37 ?v0) ?v0))))
(assert (forall ((?v0 S6)) (= (f10 (f19 f20 (f10 f21 (f10 f11 (f10 f12 f13)))) ?v0) (f10 (f19 f36 ?v0) ?v0))))
(assert (forall ((?v0 S10)) (= (f22 (f23 f24 (f25 f26 (f10 f11 (f10 f12 f13)))) ?v0) (f22 (f23 f37 ?v0) ?v0))))
(assert (forall ((?v0 S6)) (= (f10 (f19 f20 ?v0) (f10 f21 (f10 f11 (f10 f12 f13)))) (f10 (f19 f36 ?v0) ?v0))))
(assert (forall ((?v0 S2)) (= (f3 (f6 f7 ?v0) (f8 f9 (f10 f11 (f10 f12 f13)))) (f3 (f6 f15 ?v0) ?v0))))
(assert (forall ((?v0 S10)) (= (f22 (f23 f24 ?v0) (f25 f26 (f10 f11 (f10 f12 f13)))) (f22 (f23 f37 ?v0) ?v0))))
(assert (forall ((?v0 S6)) (= (f10 (f19 f20 ?v0) (f10 f21 (f10 f11 (f10 f12 f13)))) (f10 (f19 f36 ?v0) ?v0))))
(assert (forall ((?v0 S10)) (= (f22 (f23 f24 ?v0) (f25 f26 (f10 f11 (f10 f12 f13)))) (f22 (f23 f37 ?v0) ?v0))))
(assert (forall ((?v0 S8)) (= (f17 f16 ?v0) f1)))
(assert (forall ((?v0 S2) (?v1 S2)) (let ((?v_0 (f6 f29 ?v0))) (let ((?v_1 (f3 ?v_0 ?v1))) (= (f3 ?v_0 (f3 (f6 f7 (f8 f9 (f10 f11 (f10 f12 f13)))) ?v1)) (f3 (f6 f7 ?v_1) ?v_1))))))
(assert (forall ((?v0 S6) (?v1 S2)) (let ((?v_0 (f31 f32 ?v0))) (let ((?v_1 (f30 ?v_0 ?v1))) (= (f30 ?v_0 (f3 (f6 f7 (f8 f9 (f10 f11 (f10 f12 f13)))) ?v1)) (f10 (f19 f20 ?v_1) ?v_1))))))
(assert (forall ((?v0 S10) (?v1 S2)) (let ((?v_0 (f34 f35 ?v0))) (let ((?v_1 (f33 ?v_0 ?v1))) (= (f33 ?v_0 (f3 (f6 f7 (f8 f9 (f10 f11 (f10 f12 f13)))) ?v1)) (f22 (f23 f24 ?v_1) ?v_1))))))
(assert (forall ((?v0 S2)) (= (not (= (f38 ?v0) f1)) (exists ((?v1 S2)) (= ?v0 (f3 f5 (f3 (f6 f7 (f8 f9 (f10 f11 (f10 f12 f13)))) ?v1)))))))
(assert (forall ((?v0 S6)) (let ((?v_0 (f8 f9 ?v0))) (= (f3 (f6 f29 ?v_0) (f8 f9 (f10 f11 (f10 f12 f13)))) (f3 (f6 f7 ?v_0) ?v_0)))))
(assert (forall ((?v0 S6)) (let ((?v_0 (f10 f21 ?v0))) (= (f30 (f31 f32 ?v_0) (f8 f9 (f10 f11 (f10 f12 f13)))) (f10 (f19 f20 ?v_0) ?v_0)))))
(assert (forall ((?v0 S6)) (let ((?v_0 (f25 f26 ?v0))) (= (f33 (f34 f35 ?v_0) (f8 f9 (f10 f11 (f10 f12 f13)))) (f22 (f23 f24 ?v_0) ?v_0)))))
(assert (forall ((?v0 S6)) (= (f10 f21 ?v0) ?v0)))
(assert (forall ((?v0 S6) (?v1 S6)) (= (f10 (f19 f36 (f10 f21 ?v0)) (f10 f21 ?v1)) (f10 f21 (f10 (f19 f36 ?v0) ?v1)))))
(assert (forall ((?v0 S2) (?v1 S2) (?v2 S2)) (let ((?v_0 (f6 f29 ?v0))) (= (f3 (f6 f7 (f3 ?v_0 ?v1)) (f3 ?v_0 ?v2)) (f3 ?v_0 (f3 (f6 f15 ?v1) ?v2))))))
(assert (forall ((?v0 S6) (?v1 S2) (?v2 S2)) (let ((?v_0 (f31 f32 ?v0))) (= (f10 (f19 f20 (f30 ?v_0 ?v1)) (f30 ?v_0 ?v2)) (f30 ?v_0 (f3 (f6 f15 ?v1) ?v2))))))
(assert (forall ((?v0 S10) (?v1 S2) (?v2 S2)) (let ((?v_0 (f34 f35 ?v0))) (= (f22 (f23 f24 (f33 ?v_0 ?v1)) (f33 ?v_0 ?v2)) (f33 ?v_0 (f3 (f6 f15 ?v1) ?v2))))))
(assert (forall ((?v0 S6) (?v1 S6) (?v2 S6) (?v3 S6)) (let ((?v_0 (f19 f36 ?v0))) (= (f10 (f19 f36 (f10 ?v_0 ?v1)) (f10 (f19 f36 ?v2) ?v3)) (f10 (f19 f36 (f10 ?v_0 ?v2)) (f10 (f19 f36 ?v1) ?v3))))))
(assert (forall ((?v0 S2) (?v1 S2) (?v2 S2) (?v3 S2)) (let ((?v_0 (f6 f15 ?v0))) (= (f3 (f6 f15 (f3 ?v_0 ?v1)) (f3 (f6 f15 ?v2) ?v3)) (f3 (f6 f15 (f3 ?v_0 ?v2)) (f3 (f6 f15 ?v1) ?v3))))))
(assert (forall ((?v0 S10) (?v1 S10) (?v2 S10) (?v3 S10)) (let ((?v_0 (f23 f37 ?v0))) (= (f22 (f23 f37 (f22 ?v_0 ?v1)) (f22 (f23 f37 ?v2) ?v3)) (f22 (f23 f37 (f22 ?v_0 ?v2)) (f22 (f23 f37 ?v1) ?v3))))))
(assert (forall ((?v0 S6) (?v1 S6) (?v2 S6)) (let ((?v_0 (f19 f36 ?v0))) (= (f10 (f19 f36 (f10 ?v_0 ?v1)) ?v2) (f10 (f19 f36 (f10 ?v_0 ?v2)) ?v1)))))
(assert (forall ((?v0 S2) (?v1 S2) (?v2 S2)) (let ((?v_0 (f6 f15 ?v0))) (= (f3 (f6 f15 (f3 ?v_0 ?v1)) ?v2) (f3 (f6 f15 (f3 ?v_0 ?v2)) ?v1)))))
(assert (forall ((?v0 S10) (?v1 S10) (?v2 S10)) (let ((?v_0 (f23 f37 ?v0))) (= (f22 (f23 f37 (f22 ?v_0 ?v1)) ?v2) (f22 (f23 f37 (f22 ?v_0 ?v2)) ?v1)))))
(assert (forall ((?v0 S6) (?v1 S6) (?v2 S6)) (let ((?v_0 (f19 f36 ?v0))) (= (f10 (f19 f36 (f10 ?v_0 ?v1)) ?v2) (f10 ?v_0 (f10 (f19 f36 ?v1) ?v2))))))
(assert (forall ((?v0 S2) (?v1 S2) (?v2 S2)) (let ((?v_0 (f6 f15 ?v0))) (= (f3 (f6 f15 (f3 ?v_0 ?v1)) ?v2) (f3 ?v_0 (f3 (f6 f15 ?v1) ?v2))))))
(assert (forall ((?v0 S10) (?v1 S10) (?v2 S10)) (let ((?v_0 (f23 f37 ?v0))) (= (f22 (f23 f37 (f22 ?v_0 ?v1)) ?v2) (f22 ?v_0 (f22 (f23 f37 ?v1) ?v2))))))
(assert (forall ((?v0 S6) (?v1 S6) (?v2 S6)) (let ((?v_0 (f19 f36 ?v0))) (= (f10 ?v_0 (f10 (f19 f36 ?v1) ?v2)) (f10 (f19 f36 (f10 ?v_0 ?v1)) ?v2)))))
(assert (forall ((?v0 S2) (?v1 S2) (?v2 S2)) (let ((?v_0 (f6 f15 ?v0))) (= (f3 ?v_0 (f3 (f6 f15 ?v1) ?v2)) (f3 (f6 f15 (f3 ?v_0 ?v1)) ?v2)))))
(assert (forall ((?v0 S10) (?v1 S10) (?v2 S10)) (let ((?v_0 (f23 f37 ?v0))) (= (f22 ?v_0 (f22 (f23 f37 ?v1) ?v2)) (f22 (f23 f37 (f22 ?v_0 ?v1)) ?v2)))))
(assert (forall ((?v0 S6) (?v1 S6) (?v2 S6)) (let ((?v_1 (f19 f36 ?v0)) (?v_0 (f19 f36 ?v1))) (= (f10 ?v_1 (f10 ?v_0 ?v2)) (f10 ?v_0 (f10 ?v_1 ?v2))))))
(assert (forall ((?v0 S2) (?v1 S2) (?v2 S2)) (let ((?v_1 (f6 f15 ?v0)) (?v_0 (f6 f15 ?v1))) (= (f3 ?v_1 (f3 ?v_0 ?v2)) (f3 ?v_0 (f3 ?v_1 ?v2))))))
(assert (forall ((?v0 S10) (?v1 S10) (?v2 S10)) (let ((?v_1 (f23 f37 ?v0)) (?v_0 (f23 f37 ?v1))) (= (f22 ?v_1 (f22 ?v_0 ?v2)) (f22 ?v_0 (f22 ?v_1 ?v2))))))
(assert (forall ((?v0 S6) (?v1 S6)) (= (f10 (f19 f36 ?v0) ?v1) (f10 (f19 f36 ?v1) ?v0))))
(assert (forall ((?v0 S2) (?v1 S2)) (= (f3 (f6 f15 ?v0) ?v1) (f3 (f6 f15 ?v1) ?v0))))
(assert (forall ((?v0 S10) (?v1 S10)) (= (f22 (f23 f37 ?v0) ?v1) (f22 (f23 f37 ?v1) ?v0))))
(assert (forall ((?v0 S2) (?v1 S2)) (let ((?v_0 (= (f38 ?v0) f1)) (?v_1 (= (f38 ?v1) f1))) (= (= (f38 (f3 (f6 f15 ?v0) ?v1)) f1) (or (and ?v_0 ?v_1) (and (not ?v_0) (not ?v_1)))))))
(assert (forall ((?v0 S2) (?v1 S2)) (= (= (f38 (f3 (f6 f15 ?v0) ?v1)) f1) (= (= (f38 ?v0) f1) (= (f38 ?v1) f1)))))
(assert (forall ((?v0 S2) (?v1 S2)) (= (not (= (f38 (f3 (f6 f15 ?v0) ?v1)) f1)) (not (= (not (= (f38 ?v0) f1)) (not (= (f38 ?v1) f1)))))))
(assert (forall ((?v0 S6) (?v1 S6) (?v2 S6)) (= (f10 (f19 f36 (f10 f21 ?v0)) (f10 (f19 f36 (f10 f21 ?v1)) ?v2)) (f10 (f19 f36 (f10 f21 (f10 (f19 f36 ?v0) ?v1))) ?v2))))
(assert (forall ((?v0 S6) (?v1 S6) (?v2 S10)) (= (f22 (f23 f37 (f25 f26 ?v0)) (f22 (f23 f37 (f25 f26 ?v1)) ?v2)) (f22 (f23 f37 (f25 f26 (f10 (f19 f36 ?v0) ?v1))) ?v2))))
(assert (forall ((?v0 S6) (?v1 S6)) (= (f10 (f19 f36 (f10 f21 ?v0)) (f10 f21 ?v1)) (f10 f21 (f10 (f19 f36 ?v0) ?v1)))))
(assert (forall ((?v0 S6) (?v1 S6)) (= (f22 (f23 f37 (f25 f26 ?v0)) (f25 f26 ?v1)) (f25 f26 (f10 (f19 f36 ?v0) ?v1)))))
(assert (forall ((?v0 S6) (?v1 S6)) (= (f10 f21 (f10 (f19 f36 ?v0) ?v1)) (f10 (f19 f36 (f10 f21 ?v0)) (f10 f21 ?v1)))))
(assert (forall ((?v0 S6) (?v1 S6)) (= (f25 f26 (f10 (f19 f36 ?v0) ?v1)) (f22 (f23 f37 (f25 f26 ?v0)) (f25 f26 ?v1)))))
(assert (forall ((?v0 S6) (?v1 S2) (?v2 S2)) (let ((?v_0 (f31 f32 ?v0))) (= (f30 ?v_0 (f3 (f6 f15 ?v1) ?v2)) (f10 (f19 f20 (f30 ?v_0 ?v1)) (f30 ?v_0 ?v2))))))
(assert (forall ((?v0 S2) (?v1 S2) (?v2 S2)) (= (f3 (f6 f29 (f3 (f6 f7 ?v0) ?v1)) ?v2) (f3 (f6 f7 (f3 (f6 f29 ?v0) ?v2)) (f3 (f6 f29 ?v1) ?v2)))))
(assert (forall ((?v0 S6) (?v1 S6) (?v2 S2)) (= (f30 (f31 f32 (f10 (f19 f20 ?v0) ?v1)) ?v2) (f10 (f19 f20 (f30 (f31 f32 ?v0) ?v2)) (f30 (f31 f32 ?v1) ?v2)))))
(assert (forall ((?v0 S10) (?v1 S10) (?v2 S2)) (= (f33 (f34 f35 (f22 (f23 f24 ?v0) ?v1)) ?v2) (f22 (f23 f24 (f33 (f34 f35 ?v0) ?v2)) (f33 (f34 f35 ?v1) ?v2)))))
(assert (forall ((?v0 S6) (?v1 S6) (?v2 S6)) (let ((?v_0 (f19 f20 ?v0))) (= (f10 ?v_0 (f10 (f19 f36 ?v1) ?v2)) (f10 (f19 f36 (f10 ?v_0 ?v1)) (f10 ?v_0 ?v2))))))
(assert (forall ((?v0 S2) (?v1 S2) (?v2 S2)) (let ((?v_0 (f6 f7 ?v0))) (= (f3 ?v_0 (f3 (f6 f15 ?v1) ?v2)) (f3 (f6 f15 (f3 ?v_0 ?v1)) (f3 ?v_0 ?v2))))))
(assert (forall ((?v0 S10) (?v1 S10) (?v2 S10)) (let ((?v_0 (f23 f24 ?v0))) (= (f22 ?v_0 (f22 (f23 f37 ?v1) ?v2)) (f22 (f23 f37 (f22 ?v_0 ?v1)) (f22 ?v_0 ?v2))))))
(assert (forall ((?v0 S6) (?v1 S6) (?v2 S6) (?v3 S6)) (let ((?v_0 (f19 f20 ?v0)) (?v_1 (f19 f20 ?v1))) (= (and (not (= ?v0 ?v1)) (not (= ?v2 ?v3))) (not (= (f10 (f19 f36 (f10 ?v_0 ?v2)) (f10 ?v_1 ?v3)) (f10 (f19 f36 (f10 ?v_0 ?v3)) (f10 ?v_1 ?v2))))))))
(assert (forall ((?v0 S2) (?v1 S2) (?v2 S2) (?v3 S2)) (let ((?v_0 (f6 f7 ?v0)) (?v_1 (f6 f7 ?v1))) (= (and (not (= ?v0 ?v1)) (not (= ?v2 ?v3))) (not (= (f3 (f6 f15 (f3 ?v_0 ?v2)) (f3 ?v_1 ?v3)) (f3 (f6 f15 (f3 ?v_0 ?v3)) (f3 ?v_1 ?v2))))))))
(assert (forall ((?v0 S10) (?v1 S10) (?v2 S10) (?v3 S10)) (let ((?v_0 (f23 f24 ?v0)) (?v_1 (f23 f24 ?v1))) (= (and (not (= ?v0 ?v1)) (not (= ?v2 ?v3))) (not (= (f22 (f23 f37 (f22 ?v_0 ?v2)) (f22 ?v_1 ?v3)) (f22 (f23 f37 (f22 ?v_0 ?v3)) (f22 ?v_1 ?v2))))))))
(assert (forall ((?v0 S6) (?v1 S6) (?v2 S6)) (= (f10 (f19 f20 (f10 (f19 f36 ?v0) ?v1)) ?v2) (f10 (f19 f36 (f10 (f19 f20 ?v0) ?v2)) (f10 (f19 f20 ?v1) ?v2)))))
(assert (forall ((?v0 S2) (?v1 S2) (?v2 S2)) (= (f3 (f6 f7 (f3 (f6 f15 ?v0) ?v1)) ?v2) (f3 (f6 f15 (f3 (f6 f7 ?v0) ?v2)) (f3 (f6 f7 ?v1) ?v2)))))
(assert (forall ((?v0 S10) (?v1 S10) (?v2 S10)) (= (f22 (f23 f24 (f22 (f23 f37 ?v0) ?v1)) ?v2) (f22 (f23 f37 (f22 (f23 f24 ?v0) ?v2)) (f22 (f23 f24 ?v1) ?v2)))))
(assert (forall ((?v0 S6) (?v1 S6) (?v2 S6)) (= (f10 (f19 f36 (f10 (f19 f20 ?v0) ?v1)) (f10 (f19 f20 ?v2) ?v1)) (f10 (f19 f20 (f10 (f19 f36 ?v0) ?v2)) ?v1))))
(assert (forall ((?v0 S2) (?v1 S2) (?v2 S2)) (= (f3 (f6 f15 (f3 (f6 f7 ?v0) ?v1)) (f3 (f6 f7 ?v2) ?v1)) (f3 (f6 f7 (f3 (f6 f15 ?v0) ?v2)) ?v1))))
(assert (forall ((?v0 S10) (?v1 S10) (?v2 S10)) (= (f22 (f23 f37 (f22 (f23 f24 ?v0) ?v1)) (f22 (f23 f24 ?v2) ?v1)) (f22 (f23 f24 (f22 (f23 f37 ?v0) ?v2)) ?v1))))
(assert (forall ((?v0 S6) (?v1 S6) (?v2 S6) (?v3 S6)) (let ((?v_0 (f19 f20 ?v0)) (?v_1 (f19 f20 ?v2))) (= (= (f10 (f19 f36 (f10 ?v_0 ?v1)) (f10 ?v_1 ?v3)) (f10 (f19 f36 (f10 ?v_0 ?v3)) (f10 ?v_1 ?v1))) (or (= ?v0 ?v2) (= ?v1 ?v3))))))
(assert (forall ((?v0 S2) (?v1 S2) (?v2 S2) (?v3 S2)) (let ((?v_0 (f6 f7 ?v0)) (?v_1 (f6 f7 ?v2))) (= (= (f3 (f6 f15 (f3 ?v_0 ?v1)) (f3 ?v_1 ?v3)) (f3 (f6 f15 (f3 ?v_0 ?v3)) (f3 ?v_1 ?v1))) (or (= ?v0 ?v2) (= ?v1 ?v3))))))
(assert (forall ((?v0 S10) (?v1 S10) (?v2 S10) (?v3 S10)) (let ((?v_0 (f23 f24 ?v0)) (?v_1 (f23 f24 ?v2))) (= (= (f22 (f23 f37 (f22 ?v_0 ?v1)) (f22 ?v_1 ?v3)) (f22 (f23 f37 (f22 ?v_0 ?v3)) (f22 ?v_1 ?v1))) (or (= ?v0 ?v2) (= ?v1 ?v3))))))
(assert (forall ((?v0 S2)) (= (= (f38 (f3 f5 ?v0)) f1) (not (= (f38 ?v0) f1)))))
(assert (forall ((?v0 S2) (?v1 S2)) (= (= (f38 (f3 (f6 f7 ?v0) ?v1)) f1) (or (= (f38 ?v0) f1) (= (f38 ?v1) f1)))))
(assert (forall ((?v0 S2) (?v1 S2) (?v2 S2)) (let ((?v_0 (f6 f29 ?v0))) (= (f3 (f6 f29 (f3 ?v_0 ?v1)) ?v2) (f3 ?v_0 (f3 (f6 f7 ?v1) ?v2))))))
(assert (forall ((?v0 S6) (?v1 S2) (?v2 S2)) (let ((?v_0 (f31 f32 ?v0))) (= (f30 (f31 f32 (f30 ?v_0 ?v1)) ?v2) (f30 ?v_0 (f3 (f6 f7 ?v1) ?v2))))))
(assert (forall ((?v0 S10) (?v1 S2) (?v2 S2)) (let ((?v_0 (f34 f35 ?v0))) (= (f33 (f34 f35 (f33 ?v_0 ?v1)) ?v2) (f33 ?v_0 (f3 (f6 f7 ?v1) ?v2))))))
(assert (forall ((?v0 S6) (?v1 S2) (?v2 S2)) (let ((?v_0 (f31 f32 ?v0))) (= (f30 (f31 f32 (f30 ?v_0 ?v1)) ?v2) (f30 ?v_0 (f3 (f6 f7 ?v1) ?v2))))))
(assert (forall ((?v0 S6)) (= (f10 (f19 f36 f13) ?v0) ?v0)))
(assert (forall ((?v0 S6)) (= (f10 (f19 f36 ?v0) f13) ?v0)))
(assert (forall ((?v0 S6)) (= (f10 f11 ?v0) (f10 (f19 f36 ?v0) ?v0))))
(assert (forall ((?v0 S6) (?v1 S6)) (= (f10 (f19 f36 (f10 f11 ?v0)) (f10 f11 ?v1)) (f10 f11 (f10 (f19 f36 ?v0) ?v1)))))
(assert (forall ((?v0 S2) (?v1 S2)) (let ((?v_0 (f6 f15 ?v0))) (= (f3 ?v_0 (f3 f5 ?v1)) (f3 f5 (f3 ?v_0 ?v1))))))
(assert (forall ((?v0 S2) (?v1 S2)) (= (f3 (f6 f15 (f3 f5 ?v0)) ?v1) (f3 f5 (f3 (f6 f15 ?v0) ?v1)))))
(assert (forall ((?v0 S2) (?v1 S2)) (= (f3 (f6 f15 (f3 f5 ?v0)) ?v1) (f3 (f6 f15 ?v0) (f3 f5 ?v1)))))
(assert (forall ((?v0 S2) (?v1 S8)) (= (= (f39 ?v0 ?v1) f1) (= (f40 ?v1 ?v0) f1))))
(assert (forall ((?v0 S2) (?v1 S2) (?v2 S2)) (let ((?v_0 (f6 f7 ?v0))) (= (f3 ?v_0 (f3 (f6 f15 ?v1) ?v2)) (f3 (f6 f15 (f3 ?v_0 ?v1)) (f3 ?v_0 ?v2))))))
(assert (forall ((?v0 S2) (?v1 S2) (?v2 S2)) (= (f3 (f6 f7 (f3 (f6 f15 ?v0) ?v1)) ?v2) (f3 (f6 f15 (f3 (f6 f7 ?v0) ?v2)) (f3 (f6 f7 ?v1) ?v2)))))
(assert (forall ((?v0 S6) (?v1 S6) (?v2 S6)) (= (f10 (f19 f20 (f10 (f19 f36 ?v0) ?v1)) ?v2) (f10 (f19 f36 (f10 (f19 f20 ?v0) ?v2)) (f10 (f19 f20 ?v1) ?v2)))))
(assert (forall ((?v0 S6) (?v1 S6) (?v2 S6)) (let ((?v_0 (f19 f20 ?v0))) (= (f10 ?v_0 (f10 (f19 f36 ?v1) ?v2)) (f10 (f19 f36 (f10 ?v_0 ?v1)) (f10 ?v_0 ?v2))))))
(assert (forall ((?v0 S2) (?v1 S2)) (let ((?v_0 (f6 f29 ?v0))) (= (f3 ?v_0 (f3 f5 ?v1)) (f3 (f6 f7 ?v0) (f3 ?v_0 ?v1))))))
(assert (forall ((?v0 S6) (?v1 S2)) (let ((?v_0 (f31 f32 ?v0))) (= (f30 ?v_0 (f3 f5 ?v1)) (f10 (f19 f20 ?v0) (f30 ?v_0 ?v1))))))
(assert (forall ((?v0 S10) (?v1 S2)) (let ((?v_0 (f34 f35 ?v0))) (= (f33 ?v_0 (f3 f5 ?v1)) (f22 (f23 f24 ?v0) (f33 ?v_0 ?v1))))))
(assert (forall ((?v0 S2) (?v1 S2)) (let ((?v_0 (f6 f29 ?v0))) (= (f3 (f6 f7 ?v0) (f3 ?v_0 ?v1)) (f3 ?v_0 (f3 f5 ?v1))))))
(assert (forall ((?v0 S6) (?v1 S2)) (let ((?v_0 (f31 f32 ?v0))) (= (f10 (f19 f20 ?v0) (f30 ?v_0 ?v1)) (f30 ?v_0 (f3 f5 ?v1))))))
(assert (forall ((?v0 S10) (?v1 S2)) (let ((?v_0 (f34 f35 ?v0))) (= (f22 (f23 f24 ?v0) (f33 ?v_0 ?v1)) (f33 ?v_0 (f3 f5 ?v1))))))
(assert (forall ((?v0 S2) (?v1 S2)) (let ((?v_0 (f6 f29 ?v0))) (= (f3 (f6 f7 (f3 ?v_0 ?v1)) ?v0) (f3 ?v_0 (f3 f5 ?v1))))))
(assert (forall ((?v0 S6) (?v1 S2)) (let ((?v_0 (f31 f32 ?v0))) (= (f10 (f19 f20 (f30 ?v_0 ?v1)) ?v0) (f30 ?v_0 (f3 f5 ?v1))))))
(assert (forall ((?v0 S10) (?v1 S2)) (let ((?v_0 (f34 f35 ?v0))) (= (f22 (f23 f24 (f33 ?v_0 ?v1)) ?v0) (f33 ?v_0 (f3 f5 ?v1))))))
(assert (forall ((?v0 S6) (?v1 S6) (?v2 S6)) (let ((?v_0 (f19 f20 (f10 f21 ?v0)))) (= (f10 ?v_0 (f10 (f19 f36 ?v1) ?v2)) (f10 (f19 f36 (f10 ?v_0 ?v1)) (f10 ?v_0 ?v2))))))
(assert (forall ((?v0 S6) (?v1 S2) (?v2 S2)) (let ((?v_0 (f6 f7 (f8 f9 ?v0)))) (= (f3 ?v_0 (f3 (f6 f15 ?v1) ?v2)) (f3 (f6 f15 (f3 ?v_0 ?v1)) (f3 ?v_0 ?v2))))))
(assert (forall ((?v0 S6) (?v1 S10) (?v2 S10)) (let ((?v_0 (f23 f24 (f25 f26 ?v0)))) (= (f22 ?v_0 (f22 (f23 f37 ?v1) ?v2)) (f22 (f23 f37 (f22 ?v_0 ?v1)) (f22 ?v_0 ?v2))))))
(assert (forall ((?v0 S6) (?v1 S6) (?v2 S6)) (let ((?v_0 (f10 f21 ?v2))) (= (f10 (f19 f20 (f10 (f19 f36 ?v0) ?v1)) ?v_0) (f10 (f19 f36 (f10 (f19 f20 ?v0) ?v_0)) (f10 (f19 f20 ?v1) ?v_0))))))
(assert (forall ((?v0 S2) (?v1 S2) (?v2 S6)) (let ((?v_0 (f8 f9 ?v2))) (= (f3 (f6 f7 (f3 (f6 f15 ?v0) ?v1)) ?v_0) (f3 (f6 f15 (f3 (f6 f7 ?v0) ?v_0)) (f3 (f6 f7 ?v1) ?v_0))))))
(assert (forall ((?v0 S10) (?v1 S10) (?v2 S6)) (let ((?v_0 (f25 f26 ?v2))) (= (f22 (f23 f24 (f22 (f23 f37 ?v0) ?v1)) ?v_0) (f22 (f23 f37 (f22 (f23 f24 ?v0) ?v_0)) (f22 (f23 f24 ?v1) ?v_0))))))
(assert (forall ((?v0 S6)) (= (f10 (f19 f36 ?v0) (f10 f21 f13)) ?v0)))
(assert (forall ((?v0 S10)) (= (f22 (f23 f37 ?v0) (f25 f26 f13)) ?v0)))
(assert (forall ((?v0 S6)) (= (f10 (f19 f36 (f10 f21 f13)) ?v0) ?v0)))
(assert (forall ((?v0 S10)) (= (f22 (f23 f37 (f25 f26 f13)) ?v0) ?v0)))
(assert (forall ((?v0 S6) (?v1 S6)) (= (f10 (f19 f36 (f10 f11 ?v0)) (f10 f12 ?v1)) (f10 f12 (f10 (f19 f36 ?v0) ?v1)))))
(assert (forall ((?v0 S6) (?v1 S6)) (= (f10 (f19 f36 (f10 f12 ?v0)) (f10 f11 ?v1)) (f10 f12 (f10 (f19 f36 ?v0) ?v1)))))
(assert (forall ((?v0 S2) (?v1 S2)) (let ((?v_0 (f6 f7 ?v0))) (= (f3 ?v_0 (f3 f5 ?v1)) (f3 (f6 f15 ?v0) (f3 ?v_0 ?v1))))))
(assert (forall ((?v0 S2) (?v1 S2)) (= (f3 (f6 f7 (f3 f5 ?v0)) ?v1) (f3 (f6 f15 ?v1) (f3 (f6 f7 ?v0) ?v1)))))
(assert (forall ((?v0 S2) (?v1 S8)) (= (f17 (f6 f14 ?v0) ?v1) f1)))
(assert (forall ((?v0 S6) (?v1 S6)) (let ((?v_1 (f10 f11 (f10 f12 f13)))) (let ((?v_0 (f8 f9 ?v_1))) (= (f30 (f31 f32 (f10 (f19 f36 ?v0) ?v1)) ?v_0) (f10 (f19 f36 (f10 (f19 f36 (f30 (f31 f32 ?v0) ?v_0)) (f30 (f31 f32 ?v1) ?v_0))) (f10 (f19 f20 (f10 (f19 f20 (f10 f21 ?v_1)) ?v0)) ?v1)))))))
(assert (forall ((?v0 S2) (?v1 S2)) (let ((?v_0 (f8 f9 (f10 f11 (f10 f12 f13))))) (= (f3 (f6 f29 (f3 (f6 f15 ?v0) ?v1)) ?v_0) (f3 (f6 f15 (f3 (f6 f15 (f3 (f6 f29 ?v0) ?v_0)) (f3 (f6 f29 ?v1) ?v_0))) (f3 (f6 f7 (f3 (f6 f7 ?v_0) ?v0)) ?v1))))))
(assert (forall ((?v0 S10) (?v1 S10)) (let ((?v_1 (f10 f11 (f10 f12 f13)))) (let ((?v_0 (f8 f9 ?v_1))) (= (f33 (f34 f35 (f22 (f23 f37 ?v0) ?v1)) ?v_0) (f22 (f23 f37 (f22 (f23 f37 (f33 (f34 f35 ?v0) ?v_0)) (f33 (f34 f35 ?v1) ?v_0))) (f22 (f23 f24 (f22 (f23 f24 (f25 f26 ?v_1)) ?v0)) ?v1)))))))
(assert (forall ((?v0 S2)) (= (f3 (f6 f29 ?v0) (f8 f9 (f10 f12 (f10 f12 f13)))) (f3 (f6 f7 (f3 (f6 f7 ?v0) ?v0)) ?v0))))
(assert (forall ((?v0 S6)) (= (f30 (f31 f32 ?v0) (f8 f9 (f10 f12 (f10 f12 f13)))) (f10 (f19 f20 (f10 (f19 f20 ?v0) ?v0)) ?v0))))
(assert (forall ((?v0 S10)) (= (f33 (f34 f35 ?v0) (f8 f9 (f10 f12 (f10 f12 f13)))) (f22 (f23 f24 (f22 (f23 f24 ?v0) ?v0)) ?v0))))
(assert (forall ((?v0 S2)) (= (f3 f5 (f3 f5 (f3 f5 ?v0))) (f3 (f6 f15 (f8 f9 (f10 f12 (f10 f12 f13)))) ?v0))))
(assert (forall ((?v0 S6) (?v1 S6)) (= (f10 (f19 f20 (f10 f12 ?v0)) ?v1) (f10 (f19 f36 (f10 f11 (f10 (f19 f20 ?v0) ?v1))) ?v1))))
(assert (forall ((?v0 S2) (?v1 S2)) (= (f3 (f6 f7 ?v0) ?v1) (f3 (f6 f7 ?v1) ?v0))))
(assert (forall ((?v0 S6) (?v1 S6)) (= (f10 (f19 f20 ?v0) ?v1) (f10 (f19 f20 ?v1) ?v0))))
(assert (forall ((?v0 S10) (?v1 S10)) (= (f22 (f23 f24 ?v0) ?v1) (f22 (f23 f24 ?v1) ?v0))))
(assert (forall ((?v0 S2) (?v1 S2) (?v2 S2)) (let ((?v_1 (f6 f7 ?v0)) (?v_0 (f6 f7 ?v1))) (= (f3 ?v_1 (f3 ?v_0 ?v2)) (f3 ?v_0 (f3 ?v_1 ?v2))))))
(assert (forall ((?v0 S6) (?v1 S6) (?v2 S6)) (let ((?v_1 (f19 f20 ?v0)) (?v_0 (f19 f20 ?v1))) (= (f10 ?v_1 (f10 ?v_0 ?v2)) (f10 ?v_0 (f10 ?v_1 ?v2))))))
(assert (forall ((?v0 S10) (?v1 S10) (?v2 S10)) (let ((?v_1 (f23 f24 ?v0)) (?v_0 (f23 f24 ?v1))) (= (f22 ?v_1 (f22 ?v_0 ?v2)) (f22 ?v_0 (f22 ?v_1 ?v2))))))
(assert (forall ((?v0 S2) (?v1 S2) (?v2 S2)) (let ((?v_0 (f6 f7 ?v0))) (= (f3 ?v_0 (f3 (f6 f7 ?v1) ?v2)) (f3 (f6 f7 (f3 ?v_0 ?v1)) ?v2)))))
(assert (forall ((?v0 S6) (?v1 S6) (?v2 S6)) (let ((?v_0 (f19 f20 ?v0))) (= (f10 ?v_0 (f10 (f19 f20 ?v1) ?v2)) (f10 (f19 f20 (f10 ?v_0 ?v1)) ?v2)))))
(assert (forall ((?v0 S10) (?v1 S10) (?v2 S10)) (let ((?v_0 (f23 f24 ?v0))) (= (f22 ?v_0 (f22 (f23 f24 ?v1) ?v2)) (f22 (f23 f24 (f22 ?v_0 ?v1)) ?v2)))))
(assert (forall ((?v0 S2) (?v1 S2) (?v2 S2)) (let ((?v_0 (f6 f7 ?v0))) (= (f3 (f6 f7 (f3 ?v_0 ?v1)) ?v2) (f3 ?v_0 (f3 (f6 f7 ?v1) ?v2))))))
(assert (forall ((?v0 S6) (?v1 S6) (?v2 S6)) (let ((?v_0 (f19 f20 ?v0))) (= (f10 (f19 f20 (f10 ?v_0 ?v1)) ?v2) (f10 ?v_0 (f10 (f19 f20 ?v1) ?v2))))))
(assert (forall ((?v0 S10) (?v1 S10) (?v2 S10)) (let ((?v_0 (f23 f24 ?v0))) (= (f22 (f23 f24 (f22 ?v_0 ?v1)) ?v2) (f22 ?v_0 (f22 (f23 f24 ?v1) ?v2))))))
(assert (forall ((?v0 S2) (?v1 S2) (?v2 S2)) (let ((?v_0 (f6 f7 ?v0))) (= (f3 (f6 f7 (f3 ?v_0 ?v1)) ?v2) (f3 (f6 f7 (f3 ?v_0 ?v2)) ?v1)))))
(assert (forall ((?v0 S6) (?v1 S6) (?v2 S6)) (let ((?v_0 (f19 f20 ?v0))) (= (f10 (f19 f20 (f10 ?v_0 ?v1)) ?v2) (f10 (f19 f20 (f10 ?v_0 ?v2)) ?v1)))))
(assert (forall ((?v0 S10) (?v1 S10) (?v2 S10)) (let ((?v_0 (f23 f24 ?v0))) (= (f22 (f23 f24 (f22 ?v_0 ?v1)) ?v2) (f22 (f23 f24 (f22 ?v_0 ?v2)) ?v1)))))
(assert (forall ((?v0 S2) (?v1 S2) (?v2 S2) (?v3 S2)) (let ((?v_0 (f6 f7 ?v0)) (?v_1 (f3 (f6 f7 ?v2) ?v3))) (= (f3 (f6 f7 (f3 ?v_0 ?v1)) ?v_1) (f3 ?v_0 (f3 (f6 f7 ?v1) ?v_1))))))
(assert (forall ((?v0 S6) (?v1 S6) (?v2 S6) (?v3 S6)) (let ((?v_0 (f19 f20 ?v0)) (?v_1 (f10 (f19 f20 ?v2) ?v3))) (= (f10 (f19 f20 (f10 ?v_0 ?v1)) ?v_1) (f10 ?v_0 (f10 (f19 f20 ?v1) ?v_1))))))
(assert (forall ((?v0 S10) (?v1 S10) (?v2 S10) (?v3 S10)) (let ((?v_0 (f23 f24 ?v0)) (?v_1 (f22 (f23 f24 ?v2) ?v3))) (= (f22 (f23 f24 (f22 ?v_0 ?v1)) ?v_1) (f22 ?v_0 (f22 (f23 f24 ?v1) ?v_1))))))
(assert (forall ((?v0 S2) (?v1 S2) (?v2 S2) (?v3 S2)) (let ((?v_1 (f6 f7 (f3 (f6 f7 ?v0) ?v1))) (?v_0 (f6 f7 ?v2))) (= (f3 ?v_1 (f3 ?v_0 ?v3)) (f3 ?v_0 (f3 ?v_1 ?v3))))))
(assert (forall ((?v0 S6) (?v1 S6) (?v2 S6) (?v3 S6)) (let ((?v_1 (f19 f20 (f10 (f19 f20 ?v0) ?v1))) (?v_0 (f19 f20 ?v2))) (= (f10 ?v_1 (f10 ?v_0 ?v3)) (f10 ?v_0 (f10 ?v_1 ?v3))))))
(assert (forall ((?v0 S10) (?v1 S10) (?v2 S10) (?v3 S10)) (let ((?v_1 (f23 f24 (f22 (f23 f24 ?v0) ?v1))) (?v_0 (f23 f24 ?v2))) (= (f22 ?v_1 (f22 ?v_0 ?v3)) (f22 ?v_0 (f22 ?v_1 ?v3))))))
(assert (forall ((?v0 S2) (?v1 S2) (?v2 S2) (?v3 S2)) (let ((?v_0 (f6 f7 ?v0))) (= (f3 (f6 f7 (f3 ?v_0 ?v1)) (f3 (f6 f7 ?v2) ?v3)) (f3 (f6 f7 (f3 ?v_0 ?v2)) (f3 (f6 f7 ?v1) ?v3))))))
(assert (forall ((?v0 S6) (?v1 S6) (?v2 S6) (?v3 S6)) (let ((?v_0 (f19 f20 ?v0))) (= (f10 (f19 f20 (f10 ?v_0 ?v1)) (f10 (f19 f20 ?v2) ?v3)) (f10 (f19 f20 (f10 ?v_0 ?v2)) (f10 (f19 f20 ?v1) ?v3))))))
(assert (forall ((?v0 S10) (?v1 S10) (?v2 S10) (?v3 S10)) (let ((?v_0 (f23 f24 ?v0))) (= (f22 (f23 f24 (f22 ?v_0 ?v1)) (f22 (f23 f24 ?v2) ?v3)) (f22 (f23 f24 (f22 ?v_0 ?v2)) (f22 (f23 f24 ?v1) ?v3))))))
(assert (forall ((?v0 S2)) (= (f3 (f6 f7 ?v0) ?v0) (f3 (f6 f29 ?v0) (f8 f9 (f10 f11 (f10 f12 f13)))))))
(assert (forall ((?v0 S6)) (= (f10 (f19 f20 ?v0) ?v0) (f30 (f31 f32 ?v0) (f8 f9 (f10 f11 (f10 f12 f13)))))))
(assert (forall ((?v0 S10)) (= (f22 (f23 f24 ?v0) ?v0) (f33 (f34 f35 ?v0) (f8 f9 (f10 f11 (f10 f12 f13)))))))
(assert (forall ((?v0 S2)) (= (f3 (f6 f29 ?v0) (f8 f9 (f10 f11 (f10 f12 f13)))) (f3 (f6 f7 ?v0) ?v0))))
(assert (forall ((?v0 S6)) (= (f30 (f31 f32 ?v0) (f8 f9 (f10 f11 (f10 f12 f13)))) (f10 (f19 f20 ?v0) ?v0))))
(assert (forall ((?v0 S10)) (= (f33 (f34 f35 ?v0) (f8 f9 (f10 f11 (f10 f12 f13)))) (f22 (f23 f24 ?v0) ?v0))))
(assert (forall ((?v0 S2)) (= (= (f38 ?v0) f1) (exists ((?v1 S2)) (= ?v0 (f3 (f6 f7 (f8 f9 (f10 f11 (f10 f12 f13)))) ?v1))))))
(assert (forall ((?v0 S6)) (not (= (f27 (f10 f21 (f10 f12 ?v0))) f1))))
(assert (forall ((?v0 S6)) (not (= (f28 (f25 f26 (f10 f12 ?v0))) f1))))
(assert (= (f27 (f10 f21 f13)) f1))
(assert (= (f28 (f25 f26 f13)) f1))
(assert (forall ((?v0 S6)) (= (= (f27 (f10 f21 (f10 f11 ?v0))) f1) (= (f27 (f10 f21 ?v0)) f1))))
(assert (forall ((?v0 S6)) (= (= (f28 (f25 f26 (f10 f11 ?v0))) f1) (= (f28 (f25 f26 ?v0)) f1))))
(assert (forall ((?v0 S3) (?v1 S8)) (= (= (f17 ?v0 ?v1) f1) (forall ((?v2 S2)) (=> (= (f39 ?v2 ?v1) f1) (forall ((?v3 S2)) (=> (= (f39 ?v3 ?v1) f1) (=> (= (f3 ?v0 ?v2) (f3 ?v0 ?v3)) (= ?v2 ?v3)))))))))
(assert (forall ((?v0 S3) (?v1 S8) (?v2 S2) (?v3 S2)) (=> (= (f17 ?v0 ?v1) f1) (=> (not (= ?v2 ?v3)) (=> (= (f39 ?v2 ?v1) f1) (=> (= (f39 ?v3 ?v1) f1) (not (= (f3 ?v0 ?v2) (f3 ?v0 ?v3)))))))))
(assert (forall ((?v0 S3) (?v1 S8) (?v2 S2) (?v3 S2)) (=> (= (f17 ?v0 ?v1) f1) (=> (= (f39 ?v2 ?v1) f1) (=> (= (f39 ?v3 ?v1) f1) (= (= (f3 ?v0 ?v2) (f3 ?v0 ?v3)) (= ?v2 ?v3)))))))
(assert (forall ((?v0 S3) (?v1 S8) (?v2 S2) (?v3 S2)) (=> (= (f17 ?v0 ?v1) f1) (=> (= (f3 ?v0 ?v2) (f3 ?v0 ?v3)) (=> (= (f39 ?v2 ?v1) f1) (=> (= (f39 ?v3 ?v1) f1) (= ?v2 ?v3)))))))
(assert (forall ((?v0 S2) (?v1 S2)) (let ((?v_1 (f8 f9 (f10 f11 (f10 f12 f13)))) (?v_0 (f6 f29 ?v0))) (= (f3 ?v_0 (f3 (f6 f7 ?v_1) ?v1)) (f3 (f6 f29 (f3 ?v_0 ?v1)) ?v_1)))))
(assert (forall ((?v0 S6) (?v1 S2)) (let ((?v_1 (f8 f9 (f10 f11 (f10 f12 f13)))) (?v_0 (f31 f32 ?v0))) (= (f30 ?v_0 (f3 (f6 f7 ?v_1) ?v1)) (f30 (f31 f32 (f30 ?v_0 ?v1)) ?v_1)))))
(assert (forall ((?v0 S10) (?v1 S2)) (let ((?v_1 (f8 f9 (f10 f11 (f10 f12 f13)))) (?v_0 (f34 f35 ?v0))) (= (f33 ?v_0 (f3 (f6 f7 ?v_1) ?v1)) (f33 (f34 f35 (f33 ?v_0 ?v1)) ?v_1)))))
(assert (forall ((?v0 S2)) (= (f3 (f6 f15 ?v0) (f8 f9 (f10 f11 (f10 f12 f13)))) (f3 f5 (f3 f5 ?v0)))))
(assert (forall ((?v0 S2)) (= (f3 (f6 f15 (f8 f9 (f10 f11 (f10 f12 f13)))) ?v0) (f3 f5 (f3 f5 ?v0)))))
(assert (forall ((?v0 S2)) (= (f3 (f6 f7 ?v0) (f8 f9 (f10 f11 (f10 f12 f13)))) (f3 (f6 f15 ?v0) ?v0))))
(assert (forall ((?v0 S2)) (= (f3 (f6 f7 (f8 f9 (f10 f11 (f10 f12 f13)))) ?v0) (f3 (f6 f15 ?v0) ?v0))))
(assert (forall ((?v0 S10) (?v1 S10)) (let ((?v_1 (f10 f11 (f10 f12 f13)))) (let ((?v_0 (f8 f9 ?v_1))) (= (f33 (f34 f35 (f22 (f23 f37 ?v0) ?v1)) ?v_0) (f22 (f23 f37 (f22 (f23 f37 (f33 (f34 f35 ?v0) ?v_0)) (f33 (f34 f35 ?v1) ?v_0))) (f22 (f23 f24 (f22 (f23 f24 (f25 f26 ?v_1)) ?v0)) ?v1)))))))
(assert (forall ((?v0 S10)) (let ((?v_0 (f10 f11 (f10 f12 f13)))) (let ((?v_1 (f8 f9 ?v_0))) (= (f22 (f23 f24 (f25 f26 (f10 f11 ?v_0))) (f33 (f34 f35 ?v0) ?v_1)) (f33 (f34 f35 (f22 (f23 f24 (f25 f26 ?v_0)) ?v0)) ?v_1))))))
(assert (forall ((?v0 S2) (?v1 S2)) (let ((?v_0 (f6 f29 ?v0))) (= (f3 ?v_0 (f3 f5 ?v1)) (f3 (f6 f7 ?v0) (f3 ?v_0 ?v1))))))
(assert (forall ((?v0 S6) (?v1 S2)) (let ((?v_0 (f31 f32 ?v0))) (= (f30 ?v_0 (f3 f5 ?v1)) (f10 (f19 f20 ?v0) (f30 ?v_0 ?v1))))))
(assert (forall ((?v0 S10) (?v1 S2)) (let ((?v_0 (f34 f35 ?v0))) (= (f33 ?v_0 (f3 f5 ?v1)) (f22 (f23 f24 ?v0) (f33 ?v_0 ?v1))))))
(assert (forall ((?v0 S2) (?v1 S2)) (let ((?v_0 (f6 f29 ?v0))) (= (f3 ?v_0 (f3 f5 ?v1)) (f3 (f6 f7 (f3 ?v_0 ?v1)) ?v0)))))
(assert (forall ((?v0 S6) (?v1 S2)) (let ((?v_0 (f31 f32 ?v0))) (= (f30 ?v_0 (f3 f5 ?v1)) (f10 (f19 f20 (f30 ?v_0 ?v1)) ?v0)))))
(assert (forall ((?v0 S10) (?v1 S2)) (let ((?v_0 (f34 f35 ?v0))) (= (f33 ?v_0 (f3 f5 ?v1)) (f22 (f23 f24 (f33 ?v_0 ?v1)) ?v0)))))
(check-sat)
(exit)
